NAME : 10_3_3_2_(01).dat
COMMENT : Henke, Speranza, Wäscher, 2015
TYPE : MCVRP
DIMENSION : 11
EDGE_WEIGHT_TYPE : DISTANCE_MATRIX
CAPACITY : 1000
VEHICLES : 2
PRODUCT TYPES : 3
COMPARTMENTS : 3
NODE_COORD_SECTION
1 50 50
2 63.97 34.2
3 61.51 62.59
4 51.12 45.43
5 34.74 36.47
6 37.7 60.22
7 3.14 1.01
8 23.3 17.23
9 80.73 2.96
10 3.54 92.16
11 87.2 19.42
DEMAND_SECTION
1 0 0 0
2 44 64 0
3 142 115 0
4 24 56 0
5 9 50 0
6 18 31 0
7 102 0 113
8 74 0 30
9 132 44 0
10 131 0 36
11 0 45 92
DEPOT_SECTION
1
EOF